p edge 76 114
e 1 49
e 1 36
e 1 13
e 2 20
e 2 70
e 2 53
e 3 12
e 3 23
e 3 73
e 4 26
e 4 60
e 4 28
e 5 31
e 5 40
e 5 55
e 6 76
e 6 25
e 6 52
e 7 73
e 7 18
e 7 10
e 8 22
e 8 40
e 8 64
e 9 47
e 9 76
e 9 66
e 10 47
e 10 49
e 11 17
e 11 42
e 11 69
e 12 54
e 12 30
e 13 46
e 13 67
e 14 52
e 14 63
e 14 58
e 15 18
e 15 66
e 15 68
e 16 60
e 16 48
e 16 25
e 17 35
e 17 44
e 18 75
e 19 39
e 19 57
e 19 43
e 20 51
e 20 46
e 21 50
e 21 45
e 21 26
e 22 72
e 22 29
e 23 24
e 23 62
e 24 37
e 24 61
e 25 71
e 26 74
e 27 54
e 27 63
e 27 55
e 28 66
e 28 38
e 29 50
e 29 38
e 30 69
e 30 49
e 31 48
e 31 33
e 32 40
e 32 54
e 32 65
e 33 62
e 33 64
e 34 59
e 34 61
e 34 42
e 35 70
e 35 51
e 36 73
e 36 46
e 37 58
e 37 59
e 38 53
e 39 63
e 39 42
e 41 44
e 41 55
e 41 72
e 43 75
e 43 47
e 44 56
e 45 68
e 45 51
e 48 50
e 52 71
e 53 67
e 56 57
e 56 61
e 57 76
e 58 70
e 59 62
e 60 74
e 64 69
e 65 72
e 65 75
e 67 74
e 68 71
